
Gurobi 7.0.1 (win64) logging started 04/03/17 16:59:00

Changed value of parameter LogFile to outputlogs\log_LPIP_prov_code_7_1491253140.log
   Prev: gurobi.log  Default: 
Optimize a model with 2212 rows, 103490 columns and 207414 nonzeros
Variable types: 0 continuous, 103490 integer (103490 binary)
Coefficient statistics:
  Matrix range     [1e+00, 7e+02]
  Objective range  [5e+01, 1e+07]
  Bounds range     [1e+00, 1e+00]
  RHS range        [1e+00, 6e+00]
Presolve removed 271 rows and 0 columns
Presolve time: 0.18s
Presolved: 1941 rows, 103490 columns, 207143 nonzeros

MIP start did not produce a new incumbent solution
MIP start violates constraint R672 by 43.000000000

Variable types: 0 continuous, 103490 integer (103490 binary)

Root simplex log...

Iteration    Objective       Primal Inf.    Dual Inf.      Time
       0    0.0000000e+00   1.342000e+03   0.000000e+00     29s
    1372    1.0547575e+07   0.000000e+00   0.000000e+00     29s

Root relaxation: objective 1.054758e+07, 1372 iterations, 0.04 seconds

    Nodes    |    Current Node    |     Objective Bounds      |     Work
 Expl Unexpl |  Obj  Depth IntInf | Incumbent    BestBd   Gap | It/Node Time

     0     0 1.0548e+07    0   15          - 1.0548e+07      -     -   29s
Another try with MIP start
     0     0 1.0548e+07    0   15          - 1.0548e+07      -     -   41s
     0     0 1.0548e+07    0   15          - 1.0548e+07      -     -   53s
     0     0 1.0548e+07    0   15          - 1.0548e+07      -     -   58s
     0     0 1.0548e+07    0   15          - 1.0548e+07      -     -   64s
     0     0 1.0657e+07    0   28          - 1.0657e+07      -     -   64s
     0     0 1.0657e+07    0   28          - 1.0657e+07      -     -   70s
     0     0 1.0793e+07    0  170          - 1.0793e+07      -     -   70s
     0     0 1.0852e+07    0  282          - 1.0852e+07      -     -   70s
     0     0 1.0852e+07    0  282          - 1.0852e+07      -     -   70s
     0     0 1.0883e+07    0  334          - 1.0883e+07      -     -   71s
     0     0 1.0883e+07    0  337          - 1.0883e+07      -     -   71s
     0     0 1.0900e+07    0  372          - 1.0900e+07      -     -   71s
     0     0 1.0900e+07    0  372          - 1.0900e+07      -     -   71s
     0     0 1.0900e+07    0  372          - 1.0900e+07      -     -   78s
     0     0 1.0900e+07    0  372          - 1.0900e+07      -     -   85s
     0     0 1.0900e+07    0  372          - 1.0900e+07      -     -   92s
     0     0 1.0900e+07    0  372          - 1.0900e+07      -     -  100s
     0     0 1.0900e+07    0  372          - 1.0900e+07      -     -  109s
     0     2 1.0946e+07    0  351          - 1.0946e+07      -     -  124s
     1     4 1.0970e+07    1  370          - 1.0946e+07      -   440  125s
    61    62 1.1173e+07   24   10          - 1.0954e+07      -  97.6  133s
   287   288 1.1174e+07  134   10          - 1.0954e+07      -  28.8  135s
  1195  1177 1.1191e+07  513   70          - 1.0967e+07      -  11.7  146s
  1243  1224 1.1173e+07   50  372          - 1.0967e+07      -  12.3  158s
  1244  1225 1.1046e+07  414  372          - 1.0967e+07      -  12.2  183s
  1245  1225 1.1046e+07  282  524          - 1.0983e+07      -  12.2  200s
  1247  1227 1.1045e+07  139  532          - 1.0983e+07      -  12.2  206s
  1248  1227 1.1185e+07  306  528          - 1.0983e+07      -  12.2  211s
  1249  1228 1.1045e+07   70  534          - 1.0983e+07      -  12.2  215s
  1251  1229 1.1185e+07  367  534          - 1.0983e+07      -  12.2  220s
  1253  1231 1.1099e+07  608  540          - 1.0983e+07      -  12.2  226s
  1255  1232 1.1185e+07  388  542          - 1.0983e+07      -  12.1  232s
  1256  1233 1.1044e+07   48  534          - 1.0983e+07      -  12.1  235s
  1258  1234 1.1089e+07  496  536          - 1.0983e+07      -  12.1  241s
  1260  1235 1.1174e+07  122  538          - 1.0983e+07      -  12.1  246s
  1262  1237 1.1174e+07  137  538          - 1.0983e+07      -  12.1  270s
H 1263  1174                    1.124958e+07 1.0983e+07  2.37%  12.1  285s
  1264  1175 1.1046e+07  414  538 1.1250e+07 1.0983e+07  2.37%  12.1  303s
  1265  1177     cutoff   10      1.1250e+07 1.0983e+07  2.37%  30.8  306s
  1267  1177 1.1067e+07   11  592 1.1250e+07 1.0983e+07  2.37%  32.1  318s
  1269  1178 1.1074e+07   12    8 1.1250e+07 1.1042e+07  1.84%  32.5  323s
  1271  1179 1.1074e+07   13    8 1.1250e+07 1.1044e+07  1.83%  32.6  325s
  1292  1189 1.1074e+07   18    8 1.1250e+07 1.1044e+07  1.82%  33.8  333s
H 1293  1122                    1.104853e+07 1.1044e+07  0.04%  33.8  339s
  1303  1123 1.1046e+07   18   12 1.1049e+07 1.1045e+07  0.03%  33.5  340s
  1324  1132 1.1047e+07   26   22 1.1049e+07 1.1045e+07  0.03%  33.1  347s
H 1347  1086                    1.104849e+07 1.1045e+07  0.03%  32.6  354s
  1368  1101 1.1047e+07   41   17 1.1048e+07 1.1045e+07  0.03%  32.2  355s
H 1472  1071                    1.104792e+07 1.1045e+07  0.02%  30.4  364s
  1495  1080 1.1047e+07   33   22 1.1048e+07 1.1045e+07  0.02%  30.0  365s
H 1601  1045                    1.104783e+07 1.1045e+07  0.02%  28.4  372s
  1758  1080 1.1046e+07   22   22 1.1048e+07 1.1046e+07  0.02%  26.3  375s
  2058  1163 1.1046e+07   20   24 1.1048e+07 1.1046e+07  0.02%  23.2  380s
  2421  1235 1.1047e+07   31   22 1.1048e+07 1.1046e+07  0.02%  20.5  386s
  2667  1313     cutoff   52      1.1048e+07 1.1046e+07  0.02%  19.1  391s
H 2827  1209                    1.104756e+07 1.1046e+07  0.01%  18.3  400s
  3136  1256 1.1047e+07   53   16 1.1048e+07 1.1046e+07  0.01%  17.0  405s
  3401  1292 infeasible   35      1.1048e+07 1.1046e+07  0.01%  16.3  410s
  3816  1365 1.1047e+07   59   20 1.1048e+07 1.1046e+07  0.01%  15.0  417s
  3981  1386 infeasible   47      1.1048e+07 1.1046e+07  0.01%  14.6  420s
  4314  1567 1.1046e+07   31   22 1.1048e+07 1.1046e+07  0.01%  13.8  426s
  4521  1668     cutoff   76      1.1048e+07 1.1046e+07  0.01%  13.4  430s
  4997  1914 1.1047e+07   37   22 1.1048e+07 1.1046e+07  0.01%  12.5  437s
  5239  2020 1.1047e+07   32   22 1.1048e+07 1.1046e+07  0.01%  12.1  440s
  5804  2326 1.1047e+07   82   16 1.1048e+07 1.1046e+07  0.01%  11.3  449s
  6135  2558 1.1048e+07   53   22 1.1048e+07 1.1046e+07  0.01%  10.8  455s
  6452  2721 1.1046e+07   33   22 1.1048e+07 1.1046e+07  0.01%  10.5  460s
  6787  2958 1.1047e+07   66   22 1.1048e+07 1.1046e+07  0.01%  10.2  465s
H 6970  3034                    1.104752e+07 1.1046e+07  0.01%  10.0  474s
  7125  3096 1.1047e+07   52   22 1.1048e+07 1.1046e+07  0.01%   9.9  478s
  7359  3219 1.1046e+07   33   22 1.1048e+07 1.1046e+07  0.01%   9.7  490s
  7522  3304 1.1047e+07   70    - 1.1048e+07 1.1046e+07  0.01%   9.6  496s
H 7524  3122                    1.104742e+07 1.1046e+07  0.01%   9.6  504s
  7699  3217 1.1047e+07   42   33 1.1047e+07 1.1046e+07  0.01%   9.5  509s
  8032  3422 1.1047e+07   72   48 1.1047e+07 1.1046e+07  0.01%   9.3  520s
* 8185  3475              75    1.104741e+07 1.1046e+07  0.01%   9.2  528s
H 8334  3434                    1.104735e+07 1.1046e+07  0.01%   9.1  540s

Cutting planes:
  MIR: 8
  Flow cover: 6
  Lazy constraints: 3335

Explored 8650 nodes (80424 simplex iterations) in 540.46 seconds
Thread count was 4 (of 4 available processors)

Solution count 10: 1.10474e+07 1.10474e+07 1.10474e+07 ... 1.12496e+07
Pool objective bound 1.10463e+07

Optimal solution found (tolerance 1.00e-04)
Best objective 1.104735226140e+07, best bound 1.104625614448e+07, gap 0.0099%
